22
61 70 82 66 75
79 51 103 100 78 84
67 86 96 49 105 85
63 117 52 68 83 110
19 23 21 14 15
55 111 43 115 65 104
29 28 26 31 30
118 58 11 74 120 106
40 81 97 59 119 94
38 35 36 33 34
53 42 54 57 64
44 41 37 39 48
1 4 5 2 3
69 92 109 76 108 45
56 62 116 91 90 77
16 18 10 13 17
32 60 99 112 98 95
80 73 101 89
113 50 93 88 46 107
114 47 71 87 102 72
27 24 25 22 20
6 8 7 12 9
